c 
c U(n,d) graph
c graph gen seed     : 71913
c number of vertices : 80
c max number of edges: 3160
c Euclidean distance : 0.200000
c data structure     : sparse
c
c           Graph Stats
c number of vertices  : 80
c nonisolated vertices: 80
c number of edges     : 327
c edge density        : 0.103481
c max degree          : 15
c avg degree          : 8.18
c min degree          : 2
p col 80 327
e 1 32
e 1 28
e 1 24
e 1 23
e 1 17
e 1 12
e 2 76
e 2 72
e 2 48
e 2 40
e 2 28
e 2 25
e 2 22
e 2 18
e 2 5
e 3 56
e 3 47
e 3 46
e 3 39
e 3 34
e 3 33
e 3 16
e 3 7
e 4 76
e 4 75
e 4 72
e 4 64
e 4 43
e 4 40
e 4 25
e 4 20
e 4 19
e 4 18
e 4 9
e 4 5
e 5 76
e 5 75
e 5 59
e 5 43
e 5 40
e 5 28
e 5 25
e 5 22
e 5 18
e 5 9
e 6 73
e 6 63
e 6 62
e 6 52
e 6 38
e 6 10
e 7 80
e 7 79
e 7 70
e 7 51
e 7 50
e 7 45
e 7 26
e 7 16
e 7 13
e 8 68
e 8 47
e 8 33
e 8 21
e 8 10
e 9 76
e 9 75
e 9 72
e 9 64
e 9 48
e 9 40
e 9 25
e 9 20
e 9 19
e 9 18
e 10 68
e 10 63
e 10 54
e 10 52
e 10 38
e 11 78
e 11 55
e 11 51
e 11 27
e 11 26
e 11 15
e 12 66
e 12 60
e 12 46
e 12 34
e 12 32
e 12 24
e 12 23
e 12 17
e 13 78
e 13 67
e 13 65
e 13 61
e 13 55
e 13 51
e 13 42
e 13 41
e 13 26
e 13 15
e 13 14
e 14 67
e 14 65
e 14 61
e 14 51
e 14 47
e 14 42
e 14 41
e 14 21
e 14 15
e 15 78
e 15 77
e 15 67
e 15 65
e 15 61
e 15 55
e 15 51
e 15 42
e 15 41
e 15 27
e 16 80
e 16 70
e 16 56
e 16 46
e 16 45
e 16 34
e 16 24
e 17 66
e 17 60
e 17 32
e 17 24
e 17 23
e 18 76
e 18 75
e 18 72
e 18 64
e 18 48
e 18 40
e 18 25
e 18 22
e 18 20
e 19 75
e 19 72
e 19 64
e 19 20
e 20 75
e 20 72
e 20 64
e 21 68
e 21 61
e 21 47
e 21 42
e 21 33
e 22 48
e 23 66
e 23 60
e 23 36
e 23 31
e 24 46
e 24 32
e 24 28
e 25 76
e 25 75
e 25 72
e 25 64
e 25 59
e 25 43
e 25 40
e 26 80
e 26 79
e 26 78
e 26 70
e 26 69
e 26 55
e 26 51
e 26 50
e 26 45
e 27 78
e 27 77
e 27 55
e 27 51
e 28 76
e 28 59
e 28 43
e 28 40
e 28 32
e 29 49
e 29 30
e 30 74
e 30 49
e 31 66
e 31 60
e 31 58
e 31 53
e 31 44
e 31 37
e 31 35
e 33 68
e 33 56
e 33 54
e 33 47
e 33 39
e 34 56
e 34 46
e 34 39
e 35 66
e 35 60
e 35 58
e 35 53
e 35 44
e 35 37
e 36 49
e 37 73
e 37 66
e 37 60
e 37 58
e 37 57
e 37 53
e 37 44
e 38 63
e 38 52
e 39 68
e 39 56
e 39 54
e 40 76
e 40 75
e 40 64
e 40 59
e 40 43
e 41 77
e 41 67
e 41 65
e 41 61
e 41 51
e 41 42
e 42 67
e 42 65
e 42 61
e 42 51
e 42 47
e 43 76
e 43 71
e 43 69
e 43 59
e 44 73
e 44 66
e 44 60
e 44 58
e 44 57
e 44 53
e 45 80
e 45 79
e 45 71
e 45 70
e 45 69
e 45 51
e 45 50
e 46 56
e 47 68
e 47 65
e 47 61
e 48 75
e 48 72
e 48 64
e 49 74
e 50 80
e 50 79
e 50 71
e 50 70
e 50 69
e 50 55
e 51 79
e 51 78
e 51 67
e 51 65
e 51 55
e 52 73
e 52 63
e 52 62
e 52 54
e 52 53
e 53 73
e 53 66
e 53 60
e 53 57
e 53 54
e 54 68
e 54 63
e 54 56
e 55 79
e 55 78
e 55 67
e 56 68
e 57 73
e 57 62
e 57 58
e 59 80
e 59 76
e 59 71
e 59 69
e 60 66
e 61 67
e 61 65
e 62 73
e 64 75
e 64 72
e 65 67
e 67 78
e 67 77
e 69 80
e 69 79
e 69 71
e 69 70
e 70 80
e 70 79
e 70 71
e 71 80
e 71 79
e 71 76
e 72 75
e 75 76
e 78 79
e 79 80
